p sp 100 100
a 1 2 1
a 1 100 1
a 2 3 1
a 99 100 1
a 98 99 1
a 97 98 1
a 96 97 1
a 95 96 1
a 94 95 1
a 33 99 1
a 3 4 1
a 4 5 1
a 4 40 1
a 5 6 1
a 39 40 1
a 38 39 1
a 37 38 1
a 36 37 1
a 35 36 1
a 34 35 1
a 6 7 1
a 7 8 1
a 8 9 1
a 9 10 1
a 10 11 1
a 11 12 1
a 12 13 1
a 13 14 1
a 14 15 1
a 15 16 1
a 15 70 1
a 16 17 1
a 69 70 1
a 68 69 1
a 67 68 1
a 66 67 1
a 65 66 1
a 64 65 1
a 63 64 1
a 62 63 1
a 61 62 1
a 60 61 1
a 59 60 1
a 59 93 1
a 58 59 1
a 92 93 1
a 91 92 1
a 90 91 1
a 89 90 1
a 88 89 1
a 87 88 1
a 86 87 1
a 85 86 1
a 84 85 1
a 83 84 1
a 82 83 1
a 81 82 1
a 80 81 1
a 79 80 1
a 78 79 1
a 77 78 1
a 76 77 1
a 75 76 1
a 57 91 1
a 56 57 1
a 55 56 1
a 54 55 1
a 53 54 1
a 52 53 1
a 51 52 1
a 50 51 1
a 49 50 1
a 48 49 1
a 47 48 1
a 46 47 1
a 45 46 1
a 44 45 1
a 43 44 1
a 42 43 1
a 41 42 1
a 32 82 1
a 31 32 1
a 30 31 1
a 29 30 1
a 28 29 1
a 27 28 1
a 26 27 1
a 25 26 1
a 24 25 1
a 23 24 1
a 22 23 1
a 21 22 1
a 20 21 1
a 19 20 1
a 19 74 1
a 18 19 1
a 17 18 1
a 73 74 1
a 72 73 1
a 71 72 1
